RAW/CMTT/fspd/CMT2T.vrp_seed-4.out
782.7654755	0.479	28.334
