RAW/CMTT/fspd/CMT2T.vrp_seed-4.sol
Route #1: 6 33 73 62 22 28 2
Route #2: 67 46 34 4 75
Route #3: 45 29 5 15 57 13 27 52
Route #4: 1 43 42 64 41 56 23 63
Route #5: 12 72 31 55 25 50 18 24 49 16 51
Route #6: 17 3 44 32 9 39 40 26
Route #7: 35 11 66 65 38 10 58
Route #8: 8 54 19 59 14 53 7
Route #9: 68 74 21 61 69 71 60 70 20 37 36 47 48 30
Cost 782.765476